
Gurobi 11.0.3 (linux64) logging started Wed Nov 12 20:24:34 2025

Set parameter LogFile to value "./log/train/CA_500_600_threads_0/CA_83.lp.log"
Set parameter TimeLimit to value 3600
Gurobi Optimizer version 11.0.3 build v11.0.3rc0 (linux64 - "Ubuntu 22.04.5 LTS")

CPU model: AMD Ryzen 9 9900X 12-Core Processor, instruction set [SSE2|AVX|AVX2|AVX512]
Thread count: 12 physical cores, 24 logical processors, using up to 24 threads

Optimize a model with 606 rows, 600 columns and 2876 nonzeros
Model fingerprint: 0x523a14fb
Variable types: 0 continuous, 600 integer (600 binary)
Coefficient statistics:
  Matrix range     [1e+00, 1e+00]
  Objective range  [5e+00, 1e+03]
  Bounds range     [1e+00, 1e+00]
  RHS range        [1e+00, 1e+00]
Found heuristic solution: objective 20039.791988
Presolve removed 48 rows and 78 columns
Presolve time: 0.01s
Presolved: 558 rows, 522 columns, 2799 nonzeros
Variable types: 0 continuous, 522 integer (522 binary)
Found heuristic solution: objective 23402.812479

Root relaxation: objective 2.978774e+04, 1388 iterations, 0.04 seconds (0.08 work units)

    Nodes    |    Current Node    |     Objective Bounds      |     Work
 Expl Unexpl |  Obj  Depth IntInf | Incumbent    BestBd   Gap | It/Node Time

     0     0 29787.7380    0  305 23402.8125 29787.7380  27.3%     -    0s
H    0     0                    25283.416331 29787.7380  17.8%     -    0s
H    0     0                    25306.880190 29787.7380  17.7%     -    0s
H    0     0                    25478.341526 29787.7380  16.9%     -    0s
     0     0 29632.4060    0  307 25478.3415 29632.4060  16.3%     -    0s
     0     0 29515.0050    0  312 25478.3415 29515.0050  15.8%     -    0s
     0     0 29515.0050    0  317 25478.3415 29515.0050  15.8%     -    0s
     0     0 29515.0050    0  322 25478.3415 29515.0050  15.8%     -    0s
H    0     0                    25838.914703 29382.7819  13.7%     -    0s
     0     0 29382.7819    0  316 25838.9147 29382.7819  13.7%     -    0s
     0     0 29382.7819    0  316 25838.9147 29382.7819  13.7%     -    0s
     0     2 29382.7819    0  316 25838.9147 29382.7819  13.7%     -    0s
H   28    40                    26022.820799 29287.6820  12.5%   330    0s
H   30    40                    26198.277766 29287.6820  11.8%   322    0s
H   65    86                    26444.381915 29287.6820  10.8%   234    0s
H   86   108                    26589.957483 29287.6820  10.1%   216    0s
H   90   108                    26658.102170 29287.6820  9.86%   210    0s
H  131   147                    26686.848449 29287.6820  9.75%   177    0s
H  150   147                    26847.963554 29287.6820  9.09%   164    0s
H  154   147                    27098.091355 29287.6820  8.08%   161    0s
*  188   144              14    27123.405861 29287.6820  7.98%   144    0s
H 3864  1462                    27197.281139 28091.7750  3.29%   108    2s
 11848  1978 27533.5383   27  229 27197.2811 27717.3018  1.91%   101    5s

Cutting planes:
  Gomory: 2
  Clique: 28
  Zero half: 2

Explored 23089 nodes (2050012 simplex iterations) in 6.61 seconds (17.85 work units)
Thread count was 24 (of 24 available processors)

Solution count 10: 27197.3 27123.4 27098.1 ... 26022.8

Optimal solution found (tolerance 1.00e-04)
Best objective 2.719728113874e+04, best bound 2.719728113874e+04, gap 0.0000%

User-callback calls 47987, time in user-callback 0.03 sec
